NAME : instances/clustered-mixed-tsp/instance-13.tsp
COMMENT : No Comment
TYPE : TSP
DIMENSION: 51
EDGE_WEIGHT_TYPE : EUC_2D
NODE_COORD_SECTION
1 725 1358 
2 635 1428 
3 783 1463 
4 658 227 
5 1427 209 
6 622 455 
7 629 1506 
8 445 736 
9 3 703 
10 1062 1905 
11 563 769 
12 -35 805 
13 477 784 
14 1051 1891 
15 583 565 
16 663 496 
17 751 98 
18 786 133 
19 945 446 
20 708 1434 
21 669 140 
22 522 718 
23 535 481 
24 439 780 
25 730 1432 
26 381 807 
27 141 887 
28 661 154 
29 141 708 
30 437 866 
31 742 1440 
32 758 1413 
33 418 746 
34 564 893 
35 672 1425 
36 429 828 
37 1153 1873 
38 82 787 
39 17 729 
40 569 468 
41 656 436 
42 573 515 
43 1465 15 
44 701 164 
45 737 193 
46 488 824 
47 709 43 
48 776 150 
49 664 1305 
50 3 883 
51 650 1410 
EOF
